NAME : single
TYPE : ATSP
DIMENSION : 12
EDGE_WEIGHT_TYPE : EXPLICIT
EDGE_WEIGHT_FORMAT : FULL_MATRIX
EDGE_WEIGHT_SECTION
0 1635 50259 50222 50251 50210 50203 905 1588 287 294 1371 
0 0 422 440 357 489 577 1480 932 50000 50000 1248 
0 422 0 121 164 237 336 1211 667 50000 50000 962 
0 440 121 0 173 130 232 1074 517 50000 1791 824 
0 357 164 173 0 220 321 1187 619 1809 50000 916 
0 489 237 130 220 0 102 912 377 50000 50000 681 
0 577 336 232 321 102 0 816 237 50000 50000 550 
0 1480 1211 1074 1187 912 816 0 50000 705 810 298 
0 932 667 517 619 377 237 50000 0 50000 50000 282 
0 50000 50000 50000 1809 50000 50000 705 50000 0 122 1154 
0 50000 50000 1791 50000 50000 50000 810 50000 122 0 1271 
0 1248 962 824 916 681 550 298 282 1154 1271 0 
EOF